; benchmark generated from python API
(set-info :status unknown)
(declare-fun C () Real)
(declare-fun L_2 () Real)
(declare-fun S_5 () Real)
(declare-fun A_2 () Real)
(declare-fun S_4 () Real)
(declare-fun S_3 () Real)
(declare-fun L_3 () Real)
(declare-fun A_4 () Real)
(declare-fun S_2 () Real)
(declare-fun A_3 () Real)
(declare-fun L_0 () Real)
(declare-fun A_0 () Real)
(declare-fun S_1 () Real)
(declare-fun S_0 () Real)
(declare-fun L_1 () Real)
(declare-fun A_1 () Real)
(declare-fun A_5 () Real)
(assert
 (let (($x39 (>= L_0 0.0)))
 (let (($x615 (>= C 5.0)))
 (let ((?x599 (* (- 1.0) L_1)))
 (let ((?x475 (* (- 1.0) A_2)))
 (let ((?x2196 (+ ?x475 A_1 ?x599 C L_2)))
 (let (($x18288 (<= 0.0 ?x2196)))
 (let (($x17558 (not $x18288)))
 (let (($x3713 (<= (+ A_2 (* (- 1.0) S_5) (* (- 1.0) L_2) (* 2.0 C)) 0.0)))
 (let (($x3150 (<= (+ (* (- 1.0) S_5) (* 4.0 C) S_0) 0.0)))
 (let (($x1035 (<= (+ A_4 (* (- 1.0) S_5) (* (- 1.0) L_3)) 0.0)))
 (let (($x824 (<= (+ A_3 (* (- 1.0) S_5) (* (- 1.0) L_3) C) 0.0)))
 (let (($x3698 (<= (+ A_2 (* (- 1.0) L_2) C (* (- 1.0) S_4)) 0.0)))
 (let (($x1455 (<= (+ A_3 (* (- 1.0) L_3) (* (- 1.0) S_4)) 0.0)))
 (let (($x20342 (or $x1455 $x3698 $x17558 (not (<= 0.0 (+ (* (- 1.0) A_1) C S_0 L_1))))))
 (let ((?x471 (* (- 1.0) A_3)))
 (let ((?x463 (* (- 1.0) A_5)))
 (let (($x66 (= L_2 L_1)))
 (let (($x23536 (or $x66 (<= (+ A_4 ?x463 ?x471 ?x475 S_5 L_3 S_1 L_2) 0.0))))
 (let (($x34540 (or $x66 (<= (+ A_4 ?x463 ?x471 ?x475 A_1 S_5 L_3 ?x599 L_2) 0.0) (<= (+ A_4 ?x463 ?x471 ?x475 S_5 L_3 C S_0 L_2) 0.0))))
 (let (($x15810 (<= (+ A_4 ?x463 ?x471 ?x475 S_5 L_3 (* (- 1.0) C) S_2 L_2) 0.0)))
 (let (($x8662 (<= (+ A_4 ?x463 ?x471 (* (- 1.0) A_1) S_5 L_3 S_0 L_1) 0.0)))
 (let (($x34245 (or $x66 (<= (+ A_4 ?x463 ?x475 S_5 (* (- 2.0) C) L_2) 0.0))))
 (let (($x20061 (or $x824 $x1035 (<= (+ A_1 ?x599 (* (- 1.0) S_5) (* 3.0 C)) 0.0) $x3150 $x18288)))
 (let (($x3095 (<= (+ (* 3.0 C) (* (- 1.0) S_4) S_0) 0.0)))
 (let (($x20044 (or $x1455 (<= (+ A_1 ?x599 (* 2.0 C) (* (- 1.0) S_4)) 0.0) $x3095 $x18288)))
 (let (($x3129 (<= (+ (* 2.0 C) (* (- 1.0) S_3) S_0) 0.0)))
 (let (($x1458 (<= (+ A_2 (* (- 1.0) S_3) (* (- 1.0) L_2)) 0.0)))
 (let ((?x1053 (* (- 2.0) C)))
 (let ((?x479 (* (- 1.0) A_1)))
 (let (($x56 (= L_1 L_0)))
 (let (($x33889 (or $x56 (<= (+ A_4 ?x463 ?x475 ?x479 S_5 L_2 ?x1053 S_1 L_1) 0.0))))
 (let (($x34166 (or $x56 (<= (+ A_4 ?x463 ?x471 ?x479 S_5 L_3 ?x1053 S_2 L_1) 0.0))))
 (let (($x13682 (<= (+ A_4 ?x463 ?x475 ?x479 S_5 L_2 (* (- 1.0) C) S_0 L_1) 0.0)))
 (let (($x7230 (<= (+ A_4 ?x463 ?x471 ?x479 S_5 L_3 (* (- 1.0) C) S_1 L_1) 0.0)))
 (let (($x1470 (<= (+ A_3 ?x475 (* (- 1.0) L_3) (* (- 1.0) C) L_2) 0.0)))
 (let (($x19808 (or $x824 $x1035 (not $x1470) (not (<= 0.0 (+ ?x471 (* 2.0 C) S_1 L_3))))))
 (let ((?x1032 (* 2.0 C)))
 (let ((?x4543 (+ ?x471 ?x1032 S_1 L_3)))
 (let (($x18774 (<= 0.0 ?x4543)))
 (let (($x33897 (or $x1035 $x3713 (<= (+ (* (- 1.0) S_5) (* 3.0 C) S_1) 0.0) $x18774)))
 (let (($x1468 (<= (+ A_2 (* (- 1.0) C) (* (- 1.0) L_2) (* (- 1.0) S_1)) 0.0)))
 (let (($x20919 (or $x56 (<= (+ A_3 ?x475 ?x479 L_2 S_0 L_1 (* (- 1.0) L_3)) 0.0))))
 (let (($x18934 (<= 0.0 (+ A_3 ?x479 (* (- 1.0) L_3) ?x1053 L_1))))
 (let (($x3756 (<= (+ ?x471 A_2 A_1 (* (- 1.0) L_2) (* (- 1.0) S_1) ?x599 L_3) 0.0)))
 (let (($x76 (= L_3 L_2)))
 (let ((?x573 (* (- 1.0) L_3)))
 (let ((?x540 (* (- 1.0) C)))
 (let (($x20516 (or $x56 (<= (+ A_3 ?x475 ?x479 L_2 ?x540 S_1 L_1 ?x573) 0.0))))
 (let ((?x520 (* (- 1.0) S_2)))
 (let ((?x586 (* (- 1.0) L_2)))
 (let (($x33779 (or $x76 (<= (+ ?x471 A_2 A_1 ?x586 C ?x520 ?x599 L_3) 0.0) $x18934)))
 (let (($x3760 (<= (+ ?x471 A_2 A_1 ?x586 ?x540 (* (- 1.0) S_0) ?x599 L_3) 0.0)))
 (let (($x3768 (<= (+ ?x471 A_2 A_1 (* (- 1.0) A_0) ?x586 ?x599 L_3 L_0) 0.0)))
 (let (($x3043 (not $x56)))
 (let (($x34449 (or $x66 (<= (+ ?x475 A_1 C L_2 (* (- 1.0) L_0)) 0.0) $x3043)))
 (let (($x34485 (or $x56 (<= (+ A_4 ?x463 ?x479 S_5 (* (- 3.0) C) L_1) 0.0))))
 (let (($x18503 (<= (+ ?x471 A_2 ?x586 C L_3) (- 5.0))))
 (let (($x18740 (or $x76 (<= (+ ?x471 A_1 ?x599 ?x1032 L_3) (- 5.0)) $x18503 (<= (+ ?x471 (* 3.0 C) S_0 L_3) (- 5.0)))))
 (let ((?x793 (+ L_1 ?x586)))
 (let (($x18509 (<= 0.0 ?x793)))
 (let (($x18499 (not $x18509)))
 (let (($x128 (>= S_1 S_0)))
 (let (($x131 (>= S_2 S_1)))
 (let (($x134 (>= S_3 S_2)))
 (let (($x137 (>= S_4 S_3)))
 (let (($x140 (>= S_5 S_4)))
 (let (($x142 (>= A_1 A_0)))
 (let (($x143 (>= A_2 A_1)))
 (let (($x144 (>= A_3 A_2)))
 (let (($x145 (>= A_4 A_3)))
 (let (($x146 (>= A_5 A_4)))
 (and $x146 $x145 $x144 $x143 $x142 $x140 $x137 $x134 $x131 $x128 (or $x56 $x66 (= (+ ?x475 A_1 C ?x599 L_2) 0.0)) (or $x56 $x76 (= (+ ?x471 A_1 L_3 ?x1032 ?x599) 0.0) $x1458) (<= (+ ?x479 L_1 S_1) 0.0) (or $x56 (not (<= 0.0 (+ ?x599 L_0)))) (<= (+ ?x1053 S_3 ?x520) 0.0) (<= (+ (* (- 4.0) C) S_3 (* (- 1.0) S_0)) 0.0) (or $x66 $x18499) (or $x76 (not (<= 0.0 (+ L_2 ?x573)))) (or $x76 (<= (+ ?x471 ?x540 S_4 L_3) (- 5.0))) (or $x56 (<= (+ ?x479 S_1 L_1) (- 5.0))) (or $x76 (= (+ ?x471 A_2 C ?x586 L_3) 0.0) $x18509) (or $x76 (<= (+ ?x471 A_2 ?x599 C L_3) 0.0) $x18499) (or $x56 $x18288) (or $x56 (<= 0.0 (+ ?x471 A_1 ?x599 ?x1032 L_3))) (or $x1035 (<= (+ (* (- 1.0) S_5) C S_3) 0.0)) (or $x56 (<= (+ ?x479 C S_0 L_1) (- 5.0))) (<= (+ ?x1053 S_1 (* (- 1.0) S_0)) 0.0) (or $x66 $x17558 (<= (+ ?x479 S_1 L_1) (- 5.0))) (or $x76 (<= (+ ?x471 S_3 L_3) (- 5.0))) (or $x76 $x18503 (<= ?x4543 (- 5.0))) $x18740 (<= (+ (* (- 1.0) A_0) ?x540 S_1 L_0) 0.0) (or $x66 (<= (+ ?x475 ?x1053 S_4 L_2) (- 5.0))) (or (<= (+ A_1 ?x599 ?x520) 0.0) (<= (+ C ?x520 S_0) 0.0)) (or $x76 (<= (+ ?x471 S_5 ?x1053 L_3) (- 5.0))) (or $x66 $x1470) (or $x66 (<= (+ ?x475 S_5 (* (- 3.0) C) L_2) (- 5.0))) (<= (+ ?x463 S_5 L_3) 0.0) (or $x76 (<= (+ ?x471 C S_2 L_3) (- 5.0))) (or $x76 (<= (+ A_4 ?x463 ?x471 S_5 ?x540 L_3) 0.0)) (or $x66 (<= (+ ?x475 ?x540 S_3 L_2) (- 5.0))) (<= (+ ?x471 L_3 S_3) 0.0) (or $x76 $x1458 $x18934) (or $x76 $x3698 $x18934) (or $x1458 (<= (+ C (* (- 1.0) S_3) S_1) 0.0)) (<= (+ ?x1053 S_4 (* (- 1.0) S_3)) 0.0) (or $x1455 (<= (+ C (* (- 1.0) S_4) S_2) 0.0)) (<= (+ S_5 (* (- 3.0) C) (* (- 1.0) S_3)) 0.0) (<= (+ ?x479 L_1 S_5 (* (- 4.0) C)) 0.0) (<= (+ S_5 (* (- 6.0) C) (* (- 1.0) S_0)) 0.0) (or $x56 (<= (+ ?x479 S_5 (* (- 4.0) C) L_1) (- 5.0))) $x34485 (or $x66 (<= (+ ?x475 S_2 L_2) (- 5.0))) $x34449 (or $x66 (<= (+ ?x475 C S_1 L_2) (- 5.0))) (or $x76 $x18503 $x18934) (or $x76 $x3768 $x18934) (or $x76 $x3760 $x18934) (or $x76 $x1035 $x3713 $x18934) $x33779 $x20516 (or $x76 $x3756 $x18934) (or $x824 $x1035 (<= (+ (* (- 1.0) S_5) ?x1032 S_2) 0.0)) (or (<= (+ A_1 ?x599 C (* (- 1.0) S_3)) 0.0) $x3129 $x18288) (or $x66 (<= ?x2196 (- 5.0)) (<= (+ ?x475 ?x1032 S_0 L_2) (- 5.0))) $x20919 (<= (+ (* (- 3.0) C) S_3 (* (- 1.0) S_1)) 0.0) (or $x56 (<= (+ ?x479 (* (- 3.0) C) S_4 L_1) (- 5.0))) (<= (+ (* (- 1.0) A_0) S_5 (* (- 5.0) C) L_0) 0.0) (<= (+ (* (- 5.0) C) S_4 (* (- 1.0) S_0)) 0.0) (or $x56 (<= (+ ?x479 ?x540 S_2 L_1) (- 5.0))) (<= (+ (* (- 3.0) C) S_2 (* (- 1.0) S_0)) 0.0) (or $x1455 $x3095 $x3698 (<= 0.0 (+ ?x479 C S_0 L_1))) (<= (+ S_5 (* (- 5.0) C) (* (- 1.0) S_1)) 0.0) (<= (+ (* (- 4.0) C) S_4 (* (- 1.0) S_1)) 0.0) (or $x1035 (not $x1468) $x1470 $x3713) (or $x56 (<= (+ ?x479 ?x1053 S_3 L_1) (- 5.0))) (<= (+ (* (- 1.0) A_0) (* (- 3.0) C) S_3 L_0) 0.0) (or $x1455 $x3698 (<= (+ ?x1032 (* (- 1.0) S_4) S_1) 0.0)) $x33897 $x19808 (or $x56 $x7230) (or $x56 $x13682) $x34166 $x33889 (or $x56 $x8662) (<= (+ ?x479 L_1 (* (- 3.0) C) S_4) 0.0) (or $x1458 $x3129 $x17558) $x20044 (<= (+ ?x479 ?x1053 S_3 L_1) 0.0) $x20061 $x34245 (or $x66 $x8662 $x17558) (<= (+ ?x479 L_1 ?x540 S_2) 0.0) (or $x66 $x15810) $x34540 $x23536 $x20342 (or $x824 $x1035 $x3150 $x3713 $x17558) $x615 $x39 (<= (+ S_5 ?x1053 (* (- 1.0) S_4)) 0.0) (<= (+ ?x471 S_5 L_3 ?x1053) 0.0) (<= (+ ?x475 S_2 L_2) 0.0) (<= (+ (* (- 1.0) A_0) S_0 L_0) 0.0) (<= (+ (* (- 1.0) A_0) ?x1053 S_2 L_0) 0.0) (<= (+ ?x1053 S_2 (* (- 1.0) S_1)) 0.0) (<= (+ (* (- 1.0) A_0) (* (- 4.0) C) S_4 L_0) 0.0) (<= (+ (* (- 3.0) C) S_4 ?x520) 0.0) (<= (+ (* (- 1.0) A_4) L_3 S_4) 0.0) (<= (+ ?x471 L_3 ?x540 S_4) 0.0) (<= (+ S_5 (* (- 4.0) C) ?x520) 0.0) (<= (+ (* (- 1.0) A_4) S_5 L_3 ?x540) 0.0) (<= (+ ?x475 L_2 ?x540 S_3) 0.0) (<= (+ ?x475 L_2 ?x1053 S_4) 0.0) (<= (+ ?x475 S_5 L_2 (* (- 3.0) C)) 0.0))))))))))))))))))))))))))))))))))))))))))))))))))))))))))))))))))))))))))
(check-sat)
